words_hard_train/8025.qaiger
aag 103 16 0 1 87
2
4
8
16
26
34
66
74
92
100
116
124
144
152
168
170
206
6 2 5
10 5 9
12 4 8
14 11 13
18 14 16
20 7 19
22 15 17
24 21 23
28 13 27
30 12 26
32 29 31
36 33 35
38 32 34
40 37 39
42 25 41
44 24 40
46 43 45
48 20 23
50 47 49
52 19 23
54 3 4
56 53 55
58 50 57
60 46 48
62 60 55
64 45 39
68 31 67
70 30 66
72 69 71
76 73 75
78 72 74
80 77 79
82 64 81
84 65 80
86 83 85
88 63 87
90 85 79
94 71 93
96 70 92
98 95 97
102 99 101
104 98 100
106 103 105
108 90 107
110 91 106
112 109 111
114 111 105
118 97 117
120 96 116
122 119 121
126 123 125
128 122 124
130 127 129
132 114 131
134 115 130
136 133 135
138 113 137
140 88 138
142 135 129
146 120 144
148 121 145
150 147 149
154 151 153
156 150 152
158 155 157
160 142 159
162 143 158
164 161 163
166 140 165
172 168 170
174 169 171
176 173 175
178 177 146
180 176 147
182 179 181
184 163 157
186 183 185
188 182 184
190 187 189
192 166 191
194 62 86
196 112 136
198 194 196
200 198 164
202 190 200
204 193 203
206 58 205
i0 1 x2[0]
i1 2 y1[0]
i2 2 y1[1]
i3 1 x2[1]
i4 2 y1[2]
i5 1 x2[2]
i6 2 y1[3]
i7 1 x2[3]
i8 2 y1[4]
i9 1 x2[4]
i10 2 y1[5]
i11 1 x2[5]
i12 2 y1[6]
i13 1 x2[6]
i14 1 x2[7]
i15 2 y1[7]
o0 bool[0]
c
simplified
  ==
    add
      1
      subtract
        1 x2
        invert
          2 y1
    1
