words_hard_train/8025.qaiger.qdimacs
p cnf 103 262
a 1 37 8 76 17 50 84 62 0
e 2 3 4 5 6 7 9 10 11 12 13 14 15 16 18 19 20 21 22 23 24 25 26 27 28 29 30 31 32 33 34 35 36 38 39 40 41 42 43 44 45 46 47 48 49 51 52 53 54 55 56 57 58 59 60 61 63 64 65 66 67 68 69 70 71 72 73 74 75 77 78 79 80 81 82 83 85 86 87 88 89 90 91 92 93 94 95 96 97 98 99 100 101 102 103 0
-1 2 3 0
1 -3 0
-2 -3 0
2 4 5 0
-2 -5 0
-4 -5 0
-2 -4 6 0
2 -6 0
4 -6 0
5 6 7 0
-5 -7 0
-6 -7 0
-7 -8 9 0
7 -9 0
8 -9 0
3 9 10 0
-3 -10 0
-9 -10 0
7 8 11 0
-7 -11 0
-8 -11 0
10 11 12 0
-10 -12 0
-11 -12 0
6 13 14 0
-6 -14 0
-13 -14 0
-6 -13 15 0
6 -15 0
13 -15 0
14 15 16 0
-14 -16 0
-15 -16 0
16 17 18 0
-16 -18 0
-17 -18 0
-16 -17 19 0
16 -19 0
17 -19 0
18 19 20 0
-18 -20 0
-19 -20 0
12 20 21 0
-12 -21 0
-20 -21 0
-12 -20 22 0
12 -22 0
20 -22 0
21 22 23 0
-21 -23 0
-22 -23 0
-10 11 24 0
10 -24 0
-11 -24 0
23 24 25 0
-23 -25 0
-24 -25 0
9 11 26 0
-9 -26 0
-11 -26 0
1 -2 27 0
-1 -27 0
2 -27 0
26 27 28 0
-26 -28 0
-27 -28 0
-25 28 29 0
25 -29 0
-28 -29 0
-23 -24 30 0
23 -30 0
24 -30 0
-30 27 31 0
30 -31 0
-27 -31 0
22 19 32 0
-22 -32 0
-19 -32 0
15 33 34 0
-15 -34 0
-33 -34 0
-15 -33 35 0
15 -35 0
33 -35 0
34 35 36 0
-34 -36 0
-35 -36 0
36 37 38 0
-36 -38 0
-37 -38 0
-36 -37 39 0
36 -39 0
37 -39 0
38 39 40 0
-38 -40 0
-39 -40 0
-32 40 41 0
32 -41 0
-40 -41 0
32 -40 42 0
-32 -42 0
40 -42 0
41 42 43 0
-41 -43 0
-42 -43 0
31 43 44 0
-31 -44 0
-43 -44 0
42 39 45 0
-42 -45 0
-39 -45 0
35 46 47 0
-35 -47 0
-46 -47 0
-35 -46 48 0
35 -48 0
46 -48 0
47 48 49 0
-47 -49 0
-48 -49 0
49 50 51 0
-49 -51 0
-50 -51 0
-49 -50 52 0
49 -52 0
50 -52 0
51 52 53 0
-51 -53 0
-52 -53 0
-45 53 54 0
45 -54 0
-53 -54 0
45 -53 55 0
-45 -55 0
53 -55 0
54 55 56 0
-54 -56 0
-55 -56 0
55 52 57 0
-55 -57 0
-52 -57 0
48 58 59 0
-48 -59 0
-58 -59 0
-48 -58 60 0
48 -60 0
58 -60 0
59 60 61 0
-59 -61 0
-60 -61 0
61 62 63 0
-61 -63 0
-62 -63 0
-61 -62 64 0
61 -64 0
62 -64 0
63 64 65 0
-63 -65 0
-64 -65 0
-57 65 66 0
57 -66 0
-65 -66 0
57 -65 67 0
-57 -67 0
65 -67 0
66 67 68 0
-66 -68 0
-67 -68 0
56 68 69 0
-56 -69 0
-68 -69 0
-44 -69 70 0
44 -70 0
69 -70 0
67 64 71 0
-67 -71 0
-64 -71 0
-60 -72 73 0
60 -73 0
72 -73 0
60 72 74 0
-60 -74 0
-72 -74 0
73 74 75 0
-73 -75 0
-74 -75 0
75 76 77 0
-75 -77 0
-76 -77 0
-75 -76 78 0
75 -78 0
76 -78 0
77 78 79 0
-77 -79 0
-78 -79 0
-71 79 80 0
71 -80 0
-79 -80 0
71 -79 81 0
-71 -81 0
79 -81 0
80 81 82 0
-80 -82 0
-81 -82 0
-70 82 83 0
70 -83 0
-82 -83 0
-84 -85 86 0
84 -86 0
85 -86 0
84 85 87 0
-84 -87 0
-85 -87 0
86 87 88 0
-86 -88 0
-87 -88 0
88 -73 89 0
-88 -89 0
73 -89 0
-88 73 90 0
88 -90 0
-73 -90 0
89 90 91 0
-89 -91 0
-90 -91 0
81 78 92 0
-81 -92 0
-78 -92 0
91 92 93 0
-91 -93 0
-92 -93 0
-91 -92 94 0
91 -94 0
92 -94 0
93 94 95 0
-93 -95 0
-94 -95 0
-83 95 96 0
83 -96 0
-95 -96 0
-31 -43 97 0
31 -97 0
43 -97 0
-56 -68 98 0
56 -98 0
68 -98 0
-97 -98 99 0
97 -99 0
98 -99 0
-99 -82 100 0
99 -100 0
82 -100 0
-95 -100 101 0
95 -101 0
100 -101 0
96 101 102 0
-96 -102 0
-101 -102 0
-29 102 103 0
29 -103 0
-102 -103 0
103 0
